(set-info :source |printed by MathSAT|)
(declare-fun |!{$(in_main#0)<a6.6>}| () (Array Int Int))
(declare-fun |!{$(in_main#0)<a6.6>}.next| () (Array Int Int))
(declare-fun |!{$(in_main#0)<N>}| () Int)
(declare-fun |!{$(in_main#0)<N>}.next| () Int)
(declare-fun |!{$(in_main#0)<a>}| () Int)
(declare-fun |!{$(in_main#0)<a>}.next| () Int)
(declare-fun |!{$(in_main#0)<i>}| () Int)
(declare-fun |!{$(in_main#0)<i>}.next| () Int)
(declare-fun |!{$(in_main#0)<x>}| () Int)
(declare-fun |!{$(in_main#0)<x>}.next| () Int)
(declare-fun |!{$(in_main#0)<a1.1>}| () (Array Int Int))
(declare-fun |!{$(in_main#0)<a1.1>}.next| () (Array Int Int))
(declare-fun |!{$(in_main#0)<a2.2>}| () (Array Int Int))
(declare-fun |!{$(in_main#0)<a2.2>}.next| () (Array Int Int))
(declare-fun |!{$(in_main#0)<a3.3>}| () (Array Int Int))
(declare-fun |!{$(in_main#0)<a3.3>}.next| () (Array Int Int))
(declare-fun |!{$(in_main#0)<a4.4>}| () (Array Int Int))
(declare-fun |!{$(in_main#0)<a4.4>}.next| () (Array Int Int))
(declare-fun |!{$(in_main#0)<a5.5>}| () (Array Int Int))
(declare-fun |!{$(in_main#0)<a5.5>}.next| () (Array Int Int))
(declare-fun |!{$(in_main#0)<$(in___VERIFIER_nondet_int#0)<h#<__VERIFIER_nondet_int.return>>>}| () Int)
(declare-fun |!{$(in_main#0)<$(in___VERIFIER_nondet_int#1)<h#<__VERIFIER_nondet_int.return>>>}| () Int)
(declare-fun !pc () Int)
(declare-fun !pc.next () Int)
(declare-fun |%{$(in_main#0)<i>}#1| () Int)
(declare-fun |%{$(in_main#0)<x>}#1| () Int)
(declare-fun |%{$(in_main#0)<a1.1>}#1| () (Array Int Int))
(declare-fun |%{$(in_main#0)<a2.2>}#1| () (Array Int Int))
(declare-fun |%{$(in_main#0)<a3.3>}#1| () (Array Int Int))
(declare-fun |%{$(in_main#0)<a4.4>}#1| () (Array Int Int))
(declare-fun |%{$(in_main#0)<a5.5>}#1| () (Array Int Int))
(declare-fun |%{$(in_main#0)<a6.6>}#1| () (Array Int Int))
(define-fun .def_46 () Int (! !pc :next !pc.next))
(define-fun .def_49 () Bool (! (= .def_46 2) :init true))
(define-fun .def_294 () Bool (= .def_46 36))
(define-fun .def_269 () Bool (= !pc.next 57))
(define-fun .def_297 () Bool (and .def_269 .def_294))
(define-fun .def_12 () Int (! |!{$(in_main#0)<a>}| :next |!{$(in_main#0)<a>}.next|))
(define-fun .def_10 () Int (! |!{$(in_main#0)<N>}| :next |!{$(in_main#0)<N>}.next|))
(define-fun .def_276 () Bool (<= .def_10 .def_12))
(define-fun .def_210 () Bool (= |!{$(in_main#0)<i>}.next| 0))
(define-fun .def_102 () Bool (= .def_10 |!{$(in_main#0)<N>}.next|))
(define-fun .def_8 () (Array Int Int) (! |!{$(in_main#0)<a6.6>}| :next |!{$(in_main#0)<a6.6>}.next|))
(define-fun .def_100 () Bool (= .def_8 |!{$(in_main#0)<a6.6>}.next|))
(define-fun .def_121 () Bool (and .def_100 .def_102))
(define-fun .def_104 () Bool (= .def_12 |!{$(in_main#0)<a>}.next|))
(define-fun .def_122 () Bool (and .def_104 .def_121))
(define-fun .def_211 () Bool (and .def_122 .def_210))
(define-fun .def_16 () Int (! |!{$(in_main#0)<x>}| :next |!{$(in_main#0)<x>}.next|))
(define-fun .def_108 () Bool (= .def_16 |!{$(in_main#0)<x>}.next|))
(define-fun .def_212 () Bool (and .def_108 .def_211))
(define-fun .def_18 () (Array Int Int) (! |!{$(in_main#0)<a1.1>}| :next |!{$(in_main#0)<a1.1>}.next|))
(define-fun .def_110 () Bool (= .def_18 |!{$(in_main#0)<a1.1>}.next|))
(define-fun .def_213 () Bool (and .def_110 .def_212))
(define-fun .def_20 () (Array Int Int) (! |!{$(in_main#0)<a2.2>}| :next |!{$(in_main#0)<a2.2>}.next|))
(define-fun .def_112 () Bool (= .def_20 |!{$(in_main#0)<a2.2>}.next|))
(define-fun .def_214 () Bool (and .def_112 .def_213))
(define-fun .def_22 () (Array Int Int) (! |!{$(in_main#0)<a3.3>}| :next |!{$(in_main#0)<a3.3>}.next|))
(define-fun .def_114 () Bool (= .def_22 |!{$(in_main#0)<a3.3>}.next|))
(define-fun .def_215 () Bool (and .def_114 .def_214))
(define-fun .def_24 () (Array Int Int) (! |!{$(in_main#0)<a4.4>}| :next |!{$(in_main#0)<a4.4>}.next|))
(define-fun .def_116 () Bool (= .def_24 |!{$(in_main#0)<a4.4>}.next|))
(define-fun .def_216 () Bool (and .def_116 .def_215))
(define-fun .def_26 () (Array Int Int) (! |!{$(in_main#0)<a5.5>}| :next |!{$(in_main#0)<a5.5>}.next|))
(define-fun .def_118 () Bool (= .def_26 |!{$(in_main#0)<a5.5>}.next|))
(define-fun .def_217 () Bool (and .def_118 .def_216))
(define-fun .def_293 () Bool (and .def_217 .def_276))
(define-fun .def_298 () Bool (and .def_293 .def_297))
(define-fun .def_86 () Bool (= !pc.next 36))
(define-fun .def_295 () Bool (and .def_86 .def_294))
(define-fun .def_278 () (Array Int Int) (store .def_18 .def_12 |!{$(in_main#0)<$(in___VERIFIER_nondet_int#1)<h#<__VERIFIER_nondet_int.return>>>}|))
(define-fun .def_286 () Bool (= |!{$(in_main#0)<a1.1>}.next| .def_278))
(define-fun .def_280 () Int (* (- 1) |!{$(in_main#0)<a>}.next|))
(define-fun .def_281 () Int (+ .def_12 .def_280))
(define-fun .def_282 () Bool (= .def_281 (- 1)))
(define-fun .def_283 () Bool (and .def_121 .def_282))
(define-fun .def_14 () Int (! |!{$(in_main#0)<i>}| :next |!{$(in_main#0)<i>}.next|))
(define-fun .def_106 () Bool (= .def_14 |!{$(in_main#0)<i>}.next|))
(define-fun .def_284 () Bool (and .def_106 .def_283))
(define-fun .def_285 () Bool (and .def_108 .def_284))
(define-fun .def_287 () Bool (and .def_285 .def_286))
(define-fun .def_288 () Bool (and .def_112 .def_287))
(define-fun .def_289 () Bool (and .def_114 .def_288))
(define-fun .def_290 () Bool (and .def_116 .def_289))
(define-fun .def_291 () Bool (and .def_118 .def_290))
(define-fun .def_277 () Bool (not .def_276))
(define-fun .def_292 () Bool (and .def_277 .def_291))
(define-fun .def_296 () Bool (and .def_292 .def_295))
(define-fun .def_299 () Bool (or .def_296 .def_298))
(define-fun .def_268 () Bool (= .def_46 57))
(define-fun .def_252 () Bool (= !pc.next 71))
(define-fun .def_272 () Bool (and .def_252 .def_268))
(define-fun .def_163 () Bool (<= .def_10 .def_14))
(define-fun .def_218 () Bool (and .def_163 .def_217))
(define-fun .def_273 () Bool (and .def_218 .def_272))
(define-fun .def_270 () Bool (and .def_268 .def_269))
(define-fun .def_259 () Int (select .def_18 .def_14))
(define-fun .def_260 () (Array Int Int) (store .def_20 .def_14 .def_259))
(define-fun .def_261 () Bool (= |!{$(in_main#0)<a2.2>}.next| .def_260))
(define-fun .def_171 () Int (* (- 1) |!{$(in_main#0)<i>}.next|))
(define-fun .def_172 () Int (+ .def_14 .def_171))
(define-fun .def_173 () Bool (= .def_172 (- 1)))
(define-fun .def_201 () Bool (and .def_122 .def_173))
(define-fun .def_202 () Bool (and .def_108 .def_201))
(define-fun .def_203 () Bool (and .def_110 .def_202))
(define-fun .def_262 () Bool (and .def_203 .def_261))
(define-fun .def_263 () Bool (and .def_114 .def_262))
(define-fun .def_264 () Bool (and .def_116 .def_263))
(define-fun .def_265 () Bool (and .def_118 .def_264))
(define-fun .def_164 () Bool (not .def_163))
(define-fun .def_266 () Bool (and .def_164 .def_265))
(define-fun .def_271 () Bool (and .def_266 .def_270))
(define-fun .def_274 () Bool (or .def_271 .def_273))
(define-fun .def_251 () Bool (= .def_46 71))
(define-fun .def_236 () Bool (= !pc.next 85))
(define-fun .def_255 () Bool (and .def_236 .def_251))
(define-fun .def_256 () Bool (and .def_218 .def_255))
(define-fun .def_253 () Bool (and .def_251 .def_252))
(define-fun .def_243 () Int (select .def_20 .def_14))
(define-fun .def_244 () (Array Int Int) (store .def_22 .def_14 .def_243))
(define-fun .def_245 () Bool (= |!{$(in_main#0)<a3.3>}.next| .def_244))
(define-fun .def_204 () Bool (and .def_112 .def_203))
(define-fun .def_246 () Bool (and .def_204 .def_245))
(define-fun .def_247 () Bool (and .def_116 .def_246))
(define-fun .def_248 () Bool (and .def_118 .def_247))
(define-fun .def_249 () Bool (and .def_164 .def_248))
(define-fun .def_254 () Bool (and .def_249 .def_253))
(define-fun .def_257 () Bool (or .def_254 .def_256))
(define-fun .def_235 () Bool (= .def_46 85))
(define-fun .def_221 () Bool (= !pc.next 99))
(define-fun .def_239 () Bool (and .def_221 .def_235))
(define-fun .def_240 () Bool (and .def_218 .def_239))
(define-fun .def_237 () Bool (and .def_235 .def_236))
(define-fun .def_228 () Int (select .def_22 .def_14))
(define-fun .def_229 () (Array Int Int) (store .def_24 .def_14 .def_228))
(define-fun .def_230 () Bool (= |!{$(in_main#0)<a4.4>}.next| .def_229))
(define-fun .def_205 () Bool (and .def_114 .def_204))
(define-fun .def_231 () Bool (and .def_205 .def_230))
(define-fun .def_232 () Bool (and .def_118 .def_231))
(define-fun .def_233 () Bool (and .def_164 .def_232))
(define-fun .def_238 () Bool (and .def_233 .def_237))
(define-fun .def_241 () Bool (or .def_238 .def_240))
(define-fun .def_220 () Bool (= .def_46 99))
(define-fun .def_192 () Bool (= !pc.next 113))
(define-fun .def_224 () Bool (and .def_192 .def_220))
(define-fun .def_225 () Bool (and .def_218 .def_224))
(define-fun .def_222 () Bool (and .def_220 .def_221))
(define-fun .def_199 () Int (select .def_24 .def_14))
(define-fun .def_200 () (Array Int Int) (store .def_26 .def_14 .def_199))
(define-fun .def_207 () Bool (= |!{$(in_main#0)<a5.5>}.next| .def_200))
(define-fun .def_206 () Bool (and .def_116 .def_205))
(define-fun .def_208 () Bool (and .def_206 .def_207))
(define-fun .def_209 () Bool (and .def_164 .def_208))
(define-fun .def_223 () Bool (and .def_209 .def_222))
(define-fun .def_226 () Bool (or .def_223 .def_225))
(define-fun .def_191 () Bool (= .def_46 113))
(define-fun .def_152 () Bool (= !pc.next 127))
(define-fun .def_195 () Bool (and .def_152 .def_191))
(define-fun .def_182 () Bool (= |!{$(in_main#0)<x>}.next| 0))
(define-fun .def_123 () Bool (and .def_106 .def_122))
(define-fun .def_183 () Bool (and .def_123 .def_182))
(define-fun .def_184 () Bool (and .def_110 .def_183))
(define-fun .def_185 () Bool (and .def_112 .def_184))
(define-fun .def_186 () Bool (and .def_114 .def_185))
(define-fun .def_187 () Bool (and .def_116 .def_186))
(define-fun .def_188 () Bool (and .def_118 .def_187))
(define-fun .def_189 () Bool (and .def_163 .def_188))
(define-fun .def_196 () Bool (and .def_189 .def_195))
(define-fun .def_193 () Bool (and .def_191 .def_192))
(define-fun .def_165 () Int (select .def_26 .def_14))
(define-fun .def_166 () (Array Int Int) (store .def_8 .def_14 .def_165))
(define-fun .def_168 () Bool (= |!{$(in_main#0)<a6.6>}.next| .def_166))
(define-fun .def_169 () Bool (and .def_102 .def_168))
(define-fun .def_170 () Bool (and .def_104 .def_169))
(define-fun .def_174 () Bool (and .def_170 .def_173))
(define-fun .def_175 () Bool (and .def_108 .def_174))
(define-fun .def_176 () Bool (and .def_110 .def_175))
(define-fun .def_177 () Bool (and .def_112 .def_176))
(define-fun .def_178 () Bool (and .def_114 .def_177))
(define-fun .def_179 () Bool (and .def_116 .def_178))
(define-fun .def_180 () Bool (and .def_118 .def_179))
(define-fun .def_181 () Bool (and .def_164 .def_180))
(define-fun .def_194 () Bool (and .def_181 .def_193))
(define-fun .def_197 () Bool (or .def_194 .def_196))
(define-fun .def_156 () Bool (= !pc.next 0))
(define-fun .def_147 () Bool (= .def_46 127))
(define-fun .def_157 () Bool (and .def_147 .def_156))
(define-fun .def_89 () Bool (<= .def_10 .def_16))
(define-fun .def_136 () Bool (and .def_89 .def_100))
(define-fun .def_137 () Bool (and .def_102 .def_136))
(define-fun .def_138 () Bool (and .def_104 .def_137))
(define-fun .def_139 () Bool (and .def_106 .def_138))
(define-fun .def_140 () Bool (and .def_108 .def_139))
(define-fun .def_141 () Bool (and .def_110 .def_140))
(define-fun .def_142 () Bool (and .def_112 .def_141))
(define-fun .def_143 () Bool (and .def_114 .def_142))
(define-fun .def_144 () Bool (and .def_116 .def_143))
(define-fun .def_145 () Bool (and .def_118 .def_144))
(define-fun .def_158 () Bool (and .def_145 .def_157))
(define-fun .def_153 () Bool (and .def_147 .def_152))
(define-fun .def_125 () Int (* (- 1) |!{$(in_main#0)<x>}.next|))
(define-fun .def_126 () Int (+ .def_16 .def_125))
(define-fun .def_127 () Bool (= .def_126 (- 1)))
(define-fun .def_128 () Bool (and .def_123 .def_127))
(define-fun .def_129 () Bool (and .def_110 .def_128))
(define-fun .def_130 () Bool (and .def_112 .def_129))
(define-fun .def_131 () Bool (and .def_114 .def_130))
(define-fun .def_132 () Bool (and .def_116 .def_131))
(define-fun .def_133 () Bool (and .def_118 .def_132))
(define-fun .def_92 () Int (select .def_8 .def_16))
(define-fun .def_91 () Int (select .def_18 .def_16))
(define-fun .def_93 () Bool (= .def_91 .def_92))
(define-fun .def_94 () Int (ite .def_93 1 0))
(define-fun .def_95 () Bool (= .def_94 0))
(define-fun .def_96 () Bool (not .def_95))
(define-fun .def_134 () Bool (and .def_96 .def_133))
(define-fun .def_90 () Bool (not .def_89))
(define-fun .def_135 () Bool (and .def_90 .def_134))
(define-fun .def_154 () Bool (and .def_135 .def_153))
(define-fun .def_149 () Bool (= !pc.next 147))
(define-fun .def_150 () Bool (and .def_147 .def_149))
(define-fun .def_101 () Bool (and .def_95 .def_100))
(define-fun .def_103 () Bool (and .def_101 .def_102))
(define-fun .def_105 () Bool (and .def_103 .def_104))
(define-fun .def_107 () Bool (and .def_105 .def_106))
(define-fun .def_109 () Bool (and .def_107 .def_108))
(define-fun .def_111 () Bool (and .def_109 .def_110))
(define-fun .def_113 () Bool (and .def_111 .def_112))
(define-fun .def_115 () Bool (and .def_113 .def_114))
(define-fun .def_117 () Bool (and .def_115 .def_116))
(define-fun .def_119 () Bool (and .def_117 .def_118))
(define-fun .def_120 () Bool (and .def_90 .def_119))
(define-fun .def_151 () Bool (and .def_120 .def_150))
(define-fun .def_155 () Bool (or .def_151 .def_154))
(define-fun .def_159 () Bool (or .def_155 .def_158))
(define-fun .def_87 () Bool (and .def_49 .def_86))
(define-fun .def_83 () Bool (= |!{$(in_main#0)<a5.5>}.next| |%{$(in_main#0)<a5.5>}#1|))
(define-fun .def_81 () Bool (= |!{$(in_main#0)<a4.4>}.next| |%{$(in_main#0)<a4.4>}#1|))
(define-fun .def_79 () Bool (= |!{$(in_main#0)<a3.3>}.next| |%{$(in_main#0)<a3.3>}#1|))
(define-fun .def_77 () Bool (= |!{$(in_main#0)<a2.2>}.next| |%{$(in_main#0)<a2.2>}#1|))
(define-fun .def_75 () Bool (= |!{$(in_main#0)<a1.1>}.next| |%{$(in_main#0)<a1.1>}#1|))
(define-fun .def_73 () Bool (= |!{$(in_main#0)<x>}.next| |%{$(in_main#0)<x>}#1|))
(define-fun .def_71 () Bool (= |!{$(in_main#0)<i>}.next| |%{$(in_main#0)<i>}#1|))
(define-fun .def_69 () Bool (= |!{$(in_main#0)<a>}.next| 0))
(define-fun .def_67 () Bool (= |!{$(in_main#0)<N>}.next| |!{$(in_main#0)<$(in___VERIFIER_nondet_int#0)<h#<__VERIFIER_nondet_int.return>>>}|))
(define-fun .def_66 () Bool (= |!{$(in_main#0)<a6.6>}.next| |%{$(in_main#0)<a6.6>}#1|))
(define-fun .def_68 () Bool (and .def_66 .def_67))
(define-fun .def_70 () Bool (and .def_68 .def_69))
(define-fun .def_72 () Bool (and .def_70 .def_71))
(define-fun .def_74 () Bool (and .def_72 .def_73))
(define-fun .def_76 () Bool (and .def_74 .def_75))
(define-fun .def_78 () Bool (and .def_76 .def_77))
(define-fun .def_80 () Bool (and .def_78 .def_79))
(define-fun .def_82 () Bool (and .def_80 .def_81))
(define-fun .def_84 () Bool (and .def_82 .def_83))
(define-fun .def_88 () Bool (and .def_84 .def_87))
(define-fun .def_160 () Bool (or .def_88 .def_159))
(define-fun .def_198 () Bool (or .def_160 .def_197))
(define-fun .def_227 () Bool (or .def_198 .def_226))
(define-fun .def_242 () Bool (or .def_227 .def_241))
(define-fun .def_258 () Bool (or .def_242 .def_257))
(define-fun .def_275 () Bool (or .def_258 .def_274))
(define-fun .def_300 () Bool (! (or .def_275 .def_299) :trans true))
(define-fun .def_161 () Bool (= .def_46 147))
(define-fun .def_301 () Bool (! (not .def_161) :invar-property 0 :invar-property-name ||))
(assert true)
